NAME : a280.tsp
TYPE : TOUR
DIMENSION : 280
TOUR_LENGTH : 2910.4928790137183
TOUR_SECTION
1
2
280
3
279
278
260
259
258
257
254
255
256
249
248
247
245
244
243
242
241
240
246
239
238
237
236
235
234
233
232
231
250
251
230
229
228
227
226
225
224
223
222
221
220
219
218
215
217
216
213
214
211
212
207
210
209
252
253
208
206
205
204
203
202
200
201
196
195
194
197
198
199
193
192
191
190
189
188
187
186
185
184
183
182
181
176
180
179
149
148
147
146
145
144
143
142
141
140
139
138
137
136
135
269
268
267
266
265
264
263
262
261
270
134
133
132
131
150
178
177
151
152
156
153
155
154
129
130
20
19
18
17
16
271
272
273
274
275
276
277
4
5
6
7
9
8
10
11
12
15
13
14
24
23
25
22
26
27
28
29
21
128
127
126
125
124
123
122
121
120
119
157
158
159
160
175
161
162
163
164
165
166
167
168
170
171
172
173
174
107
106
105
104
103
102
169
101
100
99
98
97
96
95
94
93
92
91
90
108
110
111
114
113
87
84
83
88
112
109
89
80
79
81
82
76
78
77
75
74
73
72
71
70
67
69
68
57
56
55
54
53
52
51
50
49
48
47
46
45
44
59
58
63
64
65
66
85
86
116
115
117
118
62
61
60
43
42
41
40
39
38
37
36
35
34
33
32
31
30
-1
